p cnf 560 2072
1 2 3 4 5 0
6 7 8 9 10 0
11 12 13 14 15 0
16 17 18 19 20 0
21 22 23 24 25 0
26 27 28 29 30 0
31 32 33 34 35 0
36 37 38 39 40 0
41 42 43 44 45 0
46 47 48 49 50 0
51 52 53 54 55 0
56 57 58 59 60 0
61 62 63 64 65 0
66 67 68 69 70 0
71 72 73 74 75 0
76 77 78 79 80 0
81 82 83 84 85 0
86 87 88 89 90 0
91 92 93 94 95 0
96 97 98 99 100 0
101 102 103 104 105 0
106 107 108 109 110 0
111 112 113 114 115 0
116 117 118 119 120 0
121 122 123 124 125 0
126 127 128 129 130 0
131 132 133 134 135 0
136 137 138 139 140 0
141 142 143 144 145 0
146 147 148 149 150 0
151 152 153 154 155 0
156 157 158 159 160 0
161 162 163 164 165 0
166 167 168 169 170 0
171 172 173 174 175 0
176 177 178 179 180 0
181 182 183 184 185 0
186 187 188 189 190 0
191 192 193 194 195 0
196 197 198 199 200 0
201 202 203 204 205 0
206 207 208 209 210 0
211 212 213 214 215 0
216 217 218 219 220 0
221 222 223 224 225 0
226 227 228 229 230 0
231 232 233 234 235 0
236 237 238 239 240 0
241 242 243 244 245 0
246 247 248 249 250 0
251 252 253 254 255 0
256 257 258 259 260 0
261 262 263 264 265 0
266 267 268 269 270 0
271 272 273 274 275 0
276 277 278 279 280 0
281 282 283 284 285 0
286 287 288 289 290 0
291 292 293 294 295 0
296 297 298 299 300 0
301 302 303 304 305 0
306 307 308 309 310 0
311 312 313 314 315 0
316 317 318 319 320 0
321 322 323 324 325 0
326 327 328 329 330 0
331 332 333 334 335 0
336 337 338 339 340 0
341 342 343 344 345 0
346 347 348 349 350 0
351 352 353 354 355 0
356 357 358 359 360 0
361 362 363 364 365 0
366 367 368 369 370 0
371 372 373 374 375 0
376 377 378 379 380 0
381 382 383 384 385 0
386 387 388 389 390 0
391 392 393 394 395 0
396 397 398 399 400 0
401 402 403 404 405 0
406 407 408 409 410 0
411 412 413 414 415 0
416 417 418 419 420 0
421 422 423 424 425 0
426 427 428 429 430 0
431 432 433 434 435 0
436 437 438 439 440 0
441 442 443 444 445 0
446 447 448 449 450 0
451 452 453 454 455 0
456 457 458 459 460 0
461 462 463 464 465 0
466 467 468 469 470 0
471 472 473 474 475 0
476 477 478 479 480 0
481 482 483 484 485 0
486 487 488 489 490 0
491 492 493 494 495 0
496 497 498 499 500 0
501 502 503 504 505 0
506 507 508 509 510 0
511 512 513 514 515 0
516 517 518 519 520 0
521 522 523 524 525 0
526 527 528 529 530 0
531 532 533 534 535 0
536 537 538 539 540 0
541 542 543 544 545 0
546 547 548 549 550 0
551 552 553 554 555 0
556 557 558 559 560 0
-1 -2 0
-1 -3 0
-1 -4 0
-1 -5 0
-2 -3 0
-2 -4 0
-2 -5 0
-3 -4 0
-3 -5 0
-4 -5 0
-6 -7 0
-6 -8 0
-6 -9 0
-6 -10 0
-7 -8 0
-7 -9 0
-7 -10 0
-8 -9 0
-8 -10 0
-9 -10 0
-11 -12 0
-11 -13 0
-11 -14 0
-11 -15 0
-12 -13 0
-12 -14 0
-12 -15 0
-13 -14 0
-13 -15 0
-14 -15 0
-16 -17 0
-16 -18 0
-16 -19 0
-16 -20 0
-17 -18 0
-17 -19 0
-17 -20 0
-18 -19 0
-18 -20 0
-19 -20 0
-21 -22 0
-21 -23 0
-21 -24 0
-21 -25 0
-22 -23 0
-22 -24 0
-22 -25 0
-23 -24 0
-23 -25 0
-24 -25 0
-26 -27 0
-26 -28 0
-26 -29 0
-26 -30 0
-27 -28 0
-27 -29 0
-27 -30 0
-28 -29 0
-28 -30 0
-29 -30 0
-31 -32 0
-31 -33 0
-31 -34 0
-31 -35 0
-32 -33 0
-32 -34 0
-32 -35 0
-33 -34 0
-33 -35 0
-34 -35 0
-36 -37 0
-36 -38 0
-36 -39 0
-36 -40 0
-37 -38 0
-37 -39 0
-37 -40 0
-38 -39 0
-38 -40 0
-39 -40 0
-41 -42 0
-41 -43 0
-41 -44 0
-41 -45 0
-42 -43 0
-42 -44 0
-42 -45 0
-43 -44 0
-43 -45 0
-44 -45 0
-46 -47 0
-46 -48 0
-46 -49 0
-46 -50 0
-47 -48 0
-47 -49 0
-47 -50 0
-48 -49 0
-48 -50 0
-49 -50 0
-51 -52 0
-51 -53 0
-51 -54 0
-51 -55 0
-52 -53 0
-52 -54 0
-52 -55 0
-53 -54 0
-53 -55 0
-54 -55 0
-56 -57 0
-56 -58 0
-56 -59 0
-56 -60 0
-57 -58 0
-57 -59 0
-57 -60 0
-58 -59 0
-58 -60 0
-59 -60 0
-61 -62 0
-61 -63 0
-61 -64 0
-61 -65 0
-62 -63 0
-62 -64 0
-62 -65 0
-63 -64 0
-63 -65 0
-64 -65 0
-66 -67 0
-66 -68 0
-66 -69 0
-66 -70 0
-67 -68 0
-67 -69 0
-67 -70 0
-68 -69 0
-68 -70 0
-69 -70 0
-71 -72 0
-71 -73 0
-71 -74 0
-71 -75 0
-72 -73 0
-72 -74 0
-72 -75 0
-73 -74 0
-73 -75 0
-74 -75 0
-76 -77 0
-76 -78 0
-76 -79 0
-76 -80 0
-77 -78 0
-77 -79 0
-77 -80 0
-78 -79 0
-78 -80 0
-79 -80 0
-81 -82 0
-81 -83 0
-81 -84 0
-81 -85 0
-82 -83 0
-82 -84 0
-82 -85 0
-83 -84 0
-83 -85 0
-84 -85 0
-86 -87 0
-86 -88 0
-86 -89 0
-86 -90 0
-87 -88 0
-87 -89 0
-87 -90 0
-88 -89 0
-88 -90 0
-89 -90 0
-91 -92 0
-91 -93 0
-91 -94 0
-91 -95 0
-92 -93 0
-92 -94 0
-92 -95 0
-93 -94 0
-93 -95 0
-94 -95 0
-96 -97 0
-96 -98 0
-96 -99 0
-96 -100 0
-97 -98 0
-97 -99 0
-97 -100 0
-98 -99 0
-98 -100 0
-99 -100 0
-101 -102 0
-101 -103 0
-101 -104 0
-101 -105 0
-102 -103 0
-102 -104 0
-102 -105 0
-103 -104 0
-103 -105 0
-104 -105 0
-106 -107 0
-106 -108 0
-106 -109 0
-106 -110 0
-107 -108 0
-107 -109 0
-107 -110 0
-108 -109 0
-108 -110 0
-109 -110 0
-111 -112 0
-111 -113 0
-111 -114 0
-111 -115 0
-112 -113 0
-112 -114 0
-112 -115 0
-113 -114 0
-113 -115 0
-114 -115 0
-116 -117 0
-116 -118 0
-116 -119 0
-116 -120 0
-117 -118 0
-117 -119 0
-117 -120 0
-118 -119 0
-118 -120 0
-119 -120 0
-121 -122 0
-121 -123 0
-121 -124 0
-121 -125 0
-122 -123 0
-122 -124 0
-122 -125 0
-123 -124 0
-123 -125 0
-124 -125 0
-126 -127 0
-126 -128 0
-126 -129 0
-126 -130 0
-127 -128 0
-127 -129 0
-127 -130 0
-128 -129 0
-128 -130 0
-129 -130 0
-131 -132 0
-131 -133 0
-131 -134 0
-131 -135 0
-132 -133 0
-132 -134 0
-132 -135 0
-133 -134 0
-133 -135 0
-134 -135 0
-136 -137 0
-136 -138 0
-136 -139 0
-136 -140 0
-137 -138 0
-137 -139 0
-137 -140 0
-138 -139 0
-138 -140 0
-139 -140 0
-141 -142 0
-141 -143 0
-141 -144 0
-141 -145 0
-142 -143 0
-142 -144 0
-142 -145 0
-143 -144 0
-143 -145 0
-144 -145 0
-146 -147 0
-146 -148 0
-146 -149 0
-146 -150 0
-147 -148 0
-147 -149 0
-147 -150 0
-148 -149 0
-148 -150 0
-149 -150 0
-151 -152 0
-151 -153 0
-151 -154 0
-151 -155 0
-152 -153 0
-152 -154 0
-152 -155 0
-153 -154 0
-153 -155 0
-154 -155 0
-156 -157 0
-156 -158 0
-156 -159 0
-156 -160 0
-157 -158 0
-157 -159 0
-157 -160 0
-158 -159 0
-158 -160 0
-159 -160 0
-161 -162 0
-161 -163 0
-161 -164 0
-161 -165 0
-162 -163 0
-162 -164 0
-162 -165 0
-163 -164 0
-163 -165 0
-164 -165 0
-166 -167 0
-166 -168 0
-166 -169 0
-166 -170 0
-167 -168 0
-167 -169 0
-167 -170 0
-168 -169 0
-168 -170 0
-169 -170 0
-171 -172 0
-171 -173 0
-171 -174 0
-171 -175 0
-172 -173 0
-172 -174 0
-172 -175 0
-173 -174 0
-173 -175 0
-174 -175 0
-176 -177 0
-176 -178 0
-176 -179 0
-176 -180 0
-177 -178 0
-177 -179 0
-177 -180 0
-178 -179 0
-178 -180 0
-179 -180 0
-181 -182 0
-181 -183 0
-181 -184 0
-181 -185 0
-182 -183 0
-182 -184 0
-182 -185 0
-183 -184 0
-183 -185 0
-184 -185 0
-186 -187 0
-186 -188 0
-186 -189 0
-186 -190 0
-187 -188 0
-187 -189 0
-187 -190 0
-188 -189 0
-188 -190 0
-189 -190 0
-191 -192 0
-191 -193 0
-191 -194 0
-191 -195 0
-192 -193 0
-192 -194 0
-192 -195 0
-193 -194 0
-193 -195 0
-194 -195 0
-196 -197 0
-196 -198 0
-196 -199 0
-196 -200 0
-197 -198 0
-197 -199 0
-197 -200 0
-198 -199 0
-198 -200 0
-199 -200 0
-201 -202 0
-201 -203 0
-201 -204 0
-201 -205 0
-202 -203 0
-202 -204 0
-202 -205 0
-203 -204 0
-203 -205 0
-204 -205 0
-206 -207 0
-206 -208 0
-206 -209 0
-206 -210 0
-207 -208 0
-207 -209 0
-207 -210 0
-208 -209 0
-208 -210 0
-209 -210 0
-211 -212 0
-211 -213 0
-211 -214 0
-211 -215 0
-212 -213 0
-212 -214 0
-212 -215 0
-213 -214 0
-213 -215 0
-214 -215 0
-216 -217 0
-216 -218 0
-216 -219 0
-216 -220 0
-217 -218 0
-217 -219 0
-217 -220 0
-218 -219 0
-218 -220 0
-219 -220 0
-221 -222 0
-221 -223 0
-221 -224 0
-221 -225 0
-222 -223 0
-222 -224 0
-222 -225 0
-223 -224 0
-223 -225 0
-224 -225 0
-226 -227 0
-226 -228 0
-226 -229 0
-226 -230 0
-227 -228 0
-227 -229 0
-227 -230 0
-228 -229 0
-228 -230 0
-229 -230 0
-231 -232 0
-231 -233 0
-231 -234 0
-231 -235 0
-232 -233 0
-232 -234 0
-232 -235 0
-233 -234 0
-233 -235 0
-234 -235 0
-236 -237 0
-236 -238 0
-236 -239 0
-236 -240 0
-237 -238 0
-237 -239 0
-237 -240 0
-238 -239 0
-238 -240 0
-239 -240 0
-241 -242 0
-241 -243 0
-241 -244 0
-241 -245 0
-242 -243 0
-242 -244 0
-242 -245 0
-243 -244 0
-243 -245 0
-244 -245 0
-246 -247 0
-246 -248 0
-246 -249 0
-246 -250 0
-247 -248 0
-247 -249 0
-247 -250 0
-248 -249 0
-248 -250 0
-249 -250 0
-251 -252 0
-251 -253 0
-251 -254 0
-251 -255 0
-252 -253 0
-252 -254 0
-252 -255 0
-253 -254 0
-253 -255 0
-254 -255 0
-256 -257 0
-256 -258 0
-256 -259 0
-256 -260 0
-257 -258 0
-257 -259 0
-257 -260 0
-258 -259 0
-258 -260 0
-259 -260 0
-261 -262 0
-261 -263 0
-261 -264 0
-261 -265 0
-262 -263 0
-262 -264 0
-262 -265 0
-263 -264 0
-263 -265 0
-264 -265 0
-266 -267 0
-266 -268 0
-266 -269 0
-266 -270 0
-267 -268 0
-267 -269 0
-267 -270 0
-268 -269 0
-268 -270 0
-269 -270 0
-271 -272 0
-271 -273 0
-271 -274 0
-271 -275 0
-272 -273 0
-272 -274 0
-272 -275 0
-273 -274 0
-273 -275 0
-274 -275 0
-276 -277 0
-276 -278 0
-276 -279 0
-276 -280 0
-277 -278 0
-277 -279 0
-277 -280 0
-278 -279 0
-278 -280 0
-279 -280 0
-281 -282 0
-281 -283 0
-281 -284 0
-281 -285 0
-282 -283 0
-282 -284 0
-282 -285 0
-283 -284 0
-283 -285 0
-284 -285 0
-286 -287 0
-286 -288 0
-286 -289 0
-286 -290 0
-287 -288 0
-287 -289 0
-287 -290 0
-288 -289 0
-288 -290 0
-289 -290 0
-291 -292 0
-291 -293 0
-291 -294 0
-291 -295 0
-292 -293 0
-292 -294 0
-292 -295 0
-293 -294 0
-293 -295 0
-294 -295 0
-296 -297 0
-296 -298 0
-296 -299 0
-296 -300 0
-297 -298 0
-297 -299 0
-297 -300 0
-298 -299 0
-298 -300 0
-299 -300 0
-301 -302 0
-301 -303 0
-301 -304 0
-301 -305 0
-302 -303 0
-302 -304 0
-302 -305 0
-303 -304 0
-303 -305 0
-304 -305 0
-306 -307 0
-306 -308 0
-306 -309 0
-306 -310 0
-307 -308 0
-307 -309 0
-307 -310 0
-308 -309 0
-308 -310 0
-309 -310 0
-311 -312 0
-311 -313 0
-311 -314 0
-311 -315 0
-312 -313 0
-312 -314 0
-312 -315 0
-313 -314 0
-313 -315 0
-314 -315 0
-316 -317 0
-316 -318 0
-316 -319 0
-316 -320 0
-317 -318 0
-317 -319 0
-317 -320 0
-318 -319 0
-318 -320 0
-319 -320 0
-321 -322 0
-321 -323 0
-321 -324 0
-321 -325 0
-322 -323 0
-322 -324 0
-322 -325 0
-323 -324 0
-323 -325 0
-324 -325 0
-326 -327 0
-326 -328 0
-326 -329 0
-326 -330 0
-327 -328 0
-327 -329 0
-327 -330 0
-328 -329 0
-328 -330 0
-329 -330 0
-331 -332 0
-331 -333 0
-331 -334 0
-331 -335 0
-332 -333 0
-332 -334 0
-332 -335 0
-333 -334 0
-333 -335 0
-334 -335 0
-336 -337 0
-336 -338 0
-336 -339 0
-336 -340 0
-337 -338 0
-337 -339 0
-337 -340 0
-338 -339 0
-338 -340 0
-339 -340 0
-341 -342 0
-341 -343 0
-341 -344 0
-341 -345 0
-342 -343 0
-342 -344 0
-342 -345 0
-343 -344 0
-343 -345 0
-344 -345 0
-346 -347 0
-346 -348 0
-346 -349 0
-346 -350 0
-347 -348 0
-347 -349 0
-347 -350 0
-348 -349 0
-348 -350 0
-349 -350 0
-351 -352 0
-351 -353 0
-351 -354 0
-351 -355 0
-352 -353 0
-352 -354 0
-352 -355 0
-353 -354 0
-353 -355 0
-354 -355 0
-356 -357 0
-356 -358 0
-356 -359 0
-356 -360 0
-357 -358 0
-357 -359 0
-357 -360 0
-358 -359 0
-358 -360 0
-359 -360 0
-361 -362 0
-361 -363 0
-361 -364 0
-361 -365 0
-362 -363 0
-362 -364 0
-362 -365 0
-363 -364 0
-363 -365 0
-364 -365 0
-366 -367 0
-366 -368 0
-366 -369 0
-366 -370 0
-367 -368 0
-367 -369 0
-367 -370 0
-368 -369 0
-368 -370 0
-369 -370 0
-371 -372 0
-371 -373 0
-371 -374 0
-371 -375 0
-372 -373 0
-372 -374 0
-372 -375 0
-373 -374 0
-373 -375 0
-374 -375 0
-376 -377 0
-376 -378 0
-376 -379 0
-376 -380 0
-377 -378 0
-377 -379 0
-377 -380 0
-378 -379 0
-378 -380 0
-379 -380 0
-381 -382 0
-381 -383 0
-381 -384 0
-381 -385 0
-382 -383 0
-382 -384 0
-382 -385 0
-383 -384 0
-383 -385 0
-384 -385 0
-386 -387 0
-386 -388 0
-386 -389 0
-386 -390 0
-387 -388 0
-387 -389 0
-387 -390 0
-388 -389 0
-388 -390 0
-389 -390 0
-391 -392 0
-391 -393 0
-391 -394 0
-391 -395 0
-392 -393 0
-392 -394 0
-392 -395 0
-393 -394 0
-393 -395 0
-394 -395 0
-396 -397 0
-396 -398 0
-396 -399 0
-396 -400 0
-397 -398 0
-397 -399 0
-397 -400 0
-398 -399 0
-398 -400 0
-399 -400 0
-401 -402 0
-401 -403 0
-401 -404 0
-401 -405 0
-402 -403 0
-402 -404 0
-402 -405 0
-403 -404 0
-403 -405 0
-404 -405 0
-406 -407 0
-406 -408 0
-406 -409 0
-406 -410 0
-407 -408 0
-407 -409 0
-407 -410 0
-408 -409 0
-408 -410 0
-409 -410 0
-411 -412 0
-411 -413 0
-411 -414 0
-411 -415 0
-412 -413 0
-412 -414 0
-412 -415 0
-413 -414 0
-413 -415 0
-414 -415 0
-416 -417 0
-416 -418 0
-416 -419 0
-416 -420 0
-417 -418 0
-417 -419 0
-417 -420 0
-418 -419 0
-418 -420 0
-419 -420 0
-421 -422 0
-421 -423 0
-421 -424 0
-421 -425 0
-422 -423 0
-422 -424 0
-422 -425 0
-423 -424 0
-423 -425 0
-424 -425 0
-426 -427 0
-426 -428 0
-426 -429 0
-426 -430 0
-427 -428 0
-427 -429 0
-427 -430 0
-428 -429 0
-428 -430 0
-429 -430 0
-431 -432 0
-431 -433 0
-431 -434 0
-431 -435 0
-432 -433 0
-432 -434 0
-432 -435 0
-433 -434 0
-433 -435 0
-434 -435 0
-436 -437 0
-436 -438 0
-436 -439 0
-436 -440 0
-437 -438 0
-437 -439 0
-437 -440 0
-438 -439 0
-438 -440 0
-439 -440 0
-441 -442 0
-441 -443 0
-441 -444 0
-441 -445 0
-442 -443 0
-442 -444 0
-442 -445 0
-443 -444 0
-443 -445 0
-444 -445 0
-446 -447 0
-446 -448 0
-446 -449 0
-446 -450 0
-447 -448 0
-447 -449 0
-447 -450 0
-448 -449 0
-448 -450 0
-449 -450 0
-451 -452 0
-451 -453 0
-451 -454 0
-451 -455 0
-452 -453 0
-452 -454 0
-452 -455 0
-453 -454 0
-453 -455 0
-454 -455 0
-456 -457 0
-456 -458 0
-456 -459 0
-456 -460 0
-457 -458 0
-457 -459 0
-457 -460 0
-458 -459 0
-458 -460 0
-459 -460 0
-461 -462 0
-461 -463 0
-461 -464 0
-461 -465 0
-462 -463 0
-462 -464 0
-462 -465 0
-463 -464 0
-463 -465 0
-464 -465 0
-466 -467 0
-466 -468 0
-466 -469 0
-466 -470 0
-467 -468 0
-467 -469 0
-467 -470 0
-468 -469 0
-468 -470 0
-469 -470 0
-471 -472 0
-471 -473 0
-471 -474 0
-471 -475 0
-472 -473 0
-472 -474 0
-472 -475 0
-473 -474 0
-473 -475 0
-474 -475 0
-476 -477 0
-476 -478 0
-476 -479 0
-476 -480 0
-477 -478 0
-477 -479 0
-477 -480 0
-478 -479 0
-478 -480 0
-479 -480 0
-481 -482 0
-481 -483 0
-481 -484 0
-481 -485 0
-482 -483 0
-482 -484 0
-482 -485 0
-483 -484 0
-483 -485 0
-484 -485 0
-486 -487 0
-486 -488 0
-486 -489 0
-486 -490 0
-487 -488 0
-487 -489 0
-487 -490 0
-488 -489 0
-488 -490 0
-489 -490 0
-491 -492 0
-491 -493 0
-491 -494 0
-491 -495 0
-492 -493 0
-492 -494 0
-492 -495 0
-493 -494 0
-493 -495 0
-494 -495 0
-496 -497 0
-496 -498 0
-496 -499 0
-496 -500 0
-497 -498 0
-497 -499 0
-497 -500 0
-498 -499 0
-498 -500 0
-499 -500 0
-501 -502 0
-501 -503 0
-501 -504 0
-501 -505 0
-502 -503 0
-502 -504 0
-502 -505 0
-503 -504 0
-503 -505 0
-504 -505 0
-506 -507 0
-506 -508 0
-506 -509 0
-506 -510 0
-507 -508 0
-507 -509 0
-507 -510 0
-508 -509 0
-508 -510 0
-509 -510 0
-511 -512 0
-511 -513 0
-511 -514 0
-511 -515 0
-512 -513 0
-512 -514 0
-512 -515 0
-513 -514 0
-513 -515 0
-514 -515 0
-516 -517 0
-516 -518 0
-516 -519 0
-516 -520 0
-517 -518 0
-517 -519 0
-517 -520 0
-518 -519 0
-518 -520 0
-519 -520 0
-521 -522 0
-521 -523 0
-521 -524 0
-521 -525 0
-522 -523 0
-522 -524 0
-522 -525 0
-523 -524 0
-523 -525 0
-524 -525 0
-526 -527 0
-526 -528 0
-526 -529 0
-526 -530 0
-527 -528 0
-527 -529 0
-527 -530 0
-528 -529 0
-528 -530 0
-529 -530 0
-531 -532 0
-531 -533 0
-531 -534 0
-531 -535 0
-532 -533 0
-532 -534 0
-532 -535 0
-533 -534 0
-533 -535 0
-534 -535 0
-536 -537 0
-536 -538 0
-536 -539 0
-536 -540 0
-537 -538 0
-537 -539 0
-537 -540 0
-538 -539 0
-538 -540 0
-539 -540 0
-541 -542 0
-541 -543 0
-541 -544 0
-541 -545 0
-542 -543 0
-542 -544 0
-542 -545 0
-543 -544 0
-543 -545 0
-544 -545 0
-546 -547 0
-546 -548 0
-546 -549 0
-546 -550 0
-547 -548 0
-547 -549 0
-547 -550 0
-548 -549 0
-548 -550 0
-549 -550 0
-551 -552 0
-551 -553 0
-551 -554 0
-551 -555 0
-552 -553 0
-552 -554 0
-552 -555 0
-553 -554 0
-553 -555 0
-554 -555 0
-556 -557 0
-556 -558 0
-556 -559 0
-556 -560 0
-557 -558 0
-557 -559 0
-557 -560 0
-558 -559 0
-558 -560 0
-559 -560 0
-1 -6 0
-2 -7 0
-3 -8 0
-4 -9 0
-5 -10 0
-1 -11 0
-2 -12 0
-3 -13 0
-4 -14 0
-5 -15 0
-1 -16 0
-2 -17 0
-3 -18 0
-4 -19 0
-5 -20 0
-6 -531 0
-7 -532 0
-8 -533 0
-9 -534 0
-10 -535 0
-6 -541 0
-7 -542 0
-8 -543 0
-9 -544 0
-10 -545 0
-11 -536 0
-12 -537 0
-13 -538 0
-14 -539 0
-15 -540 0
-11 -546 0
-12 -547 0
-13 -548 0
-14 -549 0
-15 -550 0
-16 -551 0
-17 -552 0
-18 -553 0
-19 -554 0
-20 -555 0
-16 -556 0
-17 -557 0
-18 -558 0
-19 -559 0
-20 -560 0
-21 -36 0
-22 -37 0
-23 -38 0
-24 -39 0
-25 -40 0
-21 -321 0
-22 -322 0
-23 -323 0
-24 -324 0
-25 -325 0
-21 -331 0
-22 -332 0
-23 -333 0
-24 -334 0
-25 -335 0
-26 -31 0
-27 -32 0
-28 -33 0
-29 -34 0
-30 -35 0
-26 -311 0
-27 -312 0
-28 -313 0
-29 -314 0
-30 -315 0
-26 -336 0
-27 -337 0
-28 -338 0
-29 -339 0
-30 -340 0
-31 -341 0
-32 -342 0
-33 -343 0
-34 -344 0
-35 -345 0
-31 -346 0
-32 -347 0
-33 -348 0
-34 -349 0
-35 -350 0
-36 -316 0
-37 -317 0
-38 -318 0
-39 -319 0
-40 -320 0
-36 -326 0
-37 -327 0
-38 -328 0
-39 -329 0
-40 -330 0
-41 -81 0
-42 -82 0
-43 -83 0
-44 -84 0
-45 -85 0
-41 -231 0
-42 -232 0
-43 -233 0
-44 -234 0
-45 -235 0
-41 -236 0
-42 -237 0
-43 -238 0
-44 -239 0
-45 -240 0
-46 -86 0
-47 -87 0
-48 -88 0
-49 -89 0
-50 -90 0
-46 -241 0
-47 -242 0
-48 -243 0
-49 -244 0
-50 -245 0
-46 -261 0
-47 -262 0
-48 -263 0
-49 -264 0
-50 -265 0
-51 -86 0
-52 -87 0
-53 -88 0
-54 -89 0
-55 -90 0
-51 -246 0
-52 -247 0
-53 -248 0
-54 -249 0
-55 -250 0
-51 -256 0
-52 -257 0
-53 -258 0
-54 -259 0
-55 -260 0
-56 -81 0
-57 -82 0
-58 -83 0
-59 -84 0
-60 -85 0
-56 -251 0
-57 -252 0
-58 -253 0
-59 -254 0
-60 -255 0
-56 -266 0
-57 -267 0
-58 -268 0
-59 -269 0
-60 -270 0
-61 -91 0
-62 -92 0
-63 -93 0
-64 -94 0
-65 -95 0
-61 -271 0
-62 -272 0
-63 -273 0
-64 -274 0
-65 -275 0
-61 -306 0
-62 -307 0
-63 -308 0
-64 -309 0
-65 -310 0
-66 -96 0
-67 -97 0
-68 -98 0
-69 -99 0
-70 -100 0
-66 -276 0
-67 -277 0
-68 -278 0
-69 -279 0
-70 -280 0
-66 -301 0
-67 -302 0
-68 -303 0
-69 -304 0
-70 -305 0
-71 -96 0
-72 -97 0
-73 -98 0
-74 -99 0
-75 -100 0
-71 -286 0
-72 -287 0
-73 -288 0
-74 -289 0
-75 -290 0
-71 -296 0
-72 -297 0
-73 -298 0
-74 -299 0
-75 -300 0
-76 -91 0
-77 -92 0
-78 -93 0
-79 -94 0
-80 -95 0
-76 -281 0
-77 -282 0
-78 -283 0
-79 -284 0
-80 -285 0
-76 -291 0
-77 -292 0
-78 -293 0
-79 -294 0
-80 -295 0
-81 -101 0
-82 -102 0
-83 -103 0
-84 -104 0
-85 -105 0
-86 -101 0
-87 -102 0
-88 -103 0
-89 -104 0
-90 -105 0
-91 -106 0
-92 -107 0
-93 -108 0
-94 -109 0
-95 -110 0
-96 -106 0
-97 -107 0
-98 -108 0
-99 -109 0
-100 -110 0
-101 -106 0
-102 -107 0
-103 -108 0
-104 -109 0
-105 -110 0
-111 -121 0
-112 -122 0
-113 -123 0
-114 -124 0
-115 -125 0
-111 -191 0
-112 -192 0
-113 -193 0
-114 -194 0
-115 -195 0
-111 -461 0
-112 -462 0
-113 -463 0
-114 -464 0
-115 -465 0
-116 -126 0
-117 -127 0
-118 -128 0
-119 -129 0
-120 -130 0
-116 -216 0
-117 -217 0
-118 -218 0
-119 -219 0
-120 -220 0
-116 -436 0
-117 -437 0
-118 -438 0
-119 -439 0
-120 -440 0
-121 -201 0
-122 -202 0
-123 -203 0
-124 -204 0
-125 -205 0
-121 -451 0
-122 -452 0
-123 -453 0
-124 -454 0
-125 -455 0
-126 -211 0
-127 -212 0
-128 -213 0
-129 -214 0
-130 -215 0
-126 -446 0
-127 -447 0
-128 -448 0
-129 -449 0
-130 -450 0
-131 -141 0
-132 -142 0
-133 -143 0
-134 -144 0
-135 -145 0
-131 -196 0
-132 -197 0
-133 -198 0
-134 -199 0
-135 -200 0
-131 -456 0
-132 -457 0
-133 -458 0
-134 -459 0
-135 -460 0
-136 -146 0
-137 -147 0
-138 -148 0
-139 -149 0
-140 -150 0
-136 -206 0
-137 -207 0
-138 -208 0
-139 -209 0
-140 -210 0
-136 -431 0
-137 -432 0
-138 -433 0
-139 -434 0
-140 -435 0
-141 -226 0
-142 -227 0
-143 -228 0
-144 -229 0
-145 -230 0
-141 -466 0
-142 -467 0
-143 -468 0
-144 -469 0
-145 -470 0
-146 -221 0
-147 -222 0
-148 -223 0
-149 -224 0
-150 -225 0
-146 -441 0
-147 -442 0
-148 -443 0
-149 -444 0
-150 -445 0
-151 -231 0
-152 -232 0
-153 -233 0
-154 -234 0
-155 -235 0
-151 -311 0
-152 -312 0
-153 -313 0
-154 -314 0
-155 -315 0
-151 -351 0
-152 -352 0
-153 -353 0
-154 -354 0
-155 -355 0
-156 -236 0
-157 -237 0
-158 -238 0
-159 -239 0
-160 -240 0
-156 -321 0
-157 -322 0
-158 -323 0
-159 -324 0
-160 -325 0
-156 -371 0
-157 -372 0
-158 -373 0
-159 -374 0
-160 -375 0
-161 -261 0
-162 -262 0
-163 -263 0
-164 -264 0
-165 -265 0
-161 -336 0
-162 -337 0
-163 -338 0
-164 -339 0
-165 -340 0
-161 -386 0
-162 -387 0
-163 -388 0
-164 -389 0
-165 -390 0
-166 -241 0
-167 -242 0
-168 -243 0
-169 -244 0
-170 -245 0
-166 -331 0
-167 -332 0
-168 -333 0
-169 -334 0
-170 -335 0
-166 -356 0
-167 -357 0
-168 -358 0
-169 -359 0
-170 -360 0
-171 -246 0
-172 -247 0
-173 -248 0
-174 -249 0
-175 -250 0
-171 -326 0
-172 -327 0
-173 -328 0
-174 -329 0
-175 -330 0
-171 -361 0
-172 -362 0
-173 -363 0
-174 -364 0
-175 -365 0
-176 -266 0
-177 -267 0
-178 -268 0
-179 -269 0
-180 -270 0
-176 -346 0
-177 -347 0
-178 -348 0
-179 -349 0
-180 -350 0
-176 -366 0
-177 -367 0
-178 -368 0
-179 -369 0
-180 -370 0
-181 -251 0
-182 -252 0
-183 -253 0
-184 -254 0
-185 -255 0
-181 -316 0
-182 -317 0
-183 -318 0
-184 -319 0
-185 -320 0
-181 -381 0
-182 -382 0
-183 -383 0
-184 -384 0
-185 -385 0
-186 -256 0
-187 -257 0
-188 -258 0
-189 -259 0
-190 -260 0
-186 -341 0
-187 -342 0
-188 -343 0
-189 -344 0
-190 -345 0
-186 -376 0
-187 -377 0
-188 -378 0
-189 -379 0
-190 -380 0
-191 -271 0
-192 -272 0
-193 -273 0
-194 -274 0
-195 -275 0
-191 -351 0
-192 -352 0
-193 -353 0
-194 -354 0
-195 -355 0
-196 -306 0
-197 -307 0
-198 -308 0
-199 -309 0
-200 -310 0
-196 -371 0
-197 -372 0
-198 -373 0
-199 -374 0
-200 -375 0
-201 -276 0
-202 -277 0
-203 -278 0
-204 -279 0
-205 -280 0
-201 -386 0
-202 -387 0
-203 -388 0
-204 -389 0
-205 -390 0
-206 -286 0
-207 -287 0
-208 -288 0
-209 -289 0
-210 -290 0
-206 -366 0
-207 -367 0
-208 -368 0
-209 -369 0
-210 -370 0
-211 -296 0
-212 -297 0
-213 -298 0
-214 -299 0
-215 -300 0
-211 -381 0
-212 -382 0
-213 -383 0
-214 -384 0
-215 -385 0
-216 -291 0
-217 -292 0
-218 -293 0
-219 -294 0
-220 -295 0
-216 -361 0
-217 -362 0
-218 -363 0
-219 -364 0
-220 -365 0
-221 -281 0
-222 -282 0
-223 -283 0
-224 -284 0
-225 -285 0
-221 -376 0
-222 -377 0
-223 -378 0
-224 -379 0
-225 -380 0
-226 -301 0
-227 -302 0
-228 -303 0
-229 -304 0
-230 -305 0
-226 -356 0
-227 -357 0
-228 -358 0
-229 -359 0
-230 -360 0
-231 -441 0
-232 -442 0
-233 -443 0
-234 -444 0
-235 -445 0
-236 -436 0
-237 -437 0
-238 -438 0
-239 -439 0
-240 -440 0
-241 -446 0
-242 -447 0
-243 -448 0
-244 -449 0
-245 -450 0
-246 -456 0
-247 -457 0
-248 -458 0
-249 -459 0
-250 -460 0
-251 -466 0
-252 -467 0
-253 -468 0
-254 -469 0
-255 -470 0
-256 -461 0
-257 -462 0
-258 -463 0
-259 -464 0
-260 -465 0
-261 -431 0
-262 -432 0
-263 -433 0
-264 -434 0
-265 -435 0
-266 -451 0
-267 -452 0
-268 -453 0
-269 -454 0
-270 -455 0
-271 -391 0
-272 -392 0
-273 -393 0
-274 -394 0
-275 -395 0
-276 -401 0
-277 -402 0
-278 -403 0
-279 -404 0
-280 -405 0
-281 -411 0
-282 -412 0
-283 -413 0
-284 -414 0
-285 -415 0
-286 -421 0
-287 -422 0
-288 -423 0
-289 -424 0
-290 -425 0
-291 -426 0
-292 -427 0
-293 -428 0
-294 -429 0
-295 -430 0
-296 -416 0
-297 -417 0
-298 -418 0
-299 -419 0
-300 -420 0
-301 -396 0
-302 -397 0
-303 -398 0
-304 -399 0
-305 -400 0
-306 -406 0
-307 -407 0
-308 -408 0
-309 -409 0
-310 -410 0
-311 -416 0
-312 -417 0
-313 -418 0
-314 -419 0
-315 -420 0
-316 -391 0
-317 -392 0
-318 -393 0
-319 -394 0
-320 -395 0
-321 -421 0
-322 -422 0
-323 -423 0
-324 -424 0
-325 -425 0
-326 -401 0
-327 -402 0
-328 -403 0
-329 -404 0
-330 -405 0
-331 -411 0
-332 -412 0
-333 -413 0
-334 -414 0
-335 -415 0
-336 -426 0
-337 -427 0
-338 -428 0
-339 -429 0
-340 -430 0
-341 -396 0
-342 -397 0
-343 -398 0
-344 -399 0
-345 -400 0
-346 -406 0
-347 -407 0
-348 -408 0
-349 -409 0
-350 -410 0
-351 -511 0
-352 -512 0
-353 -513 0
-354 -514 0
-355 -515 0
-356 -511 0
-357 -512 0
-358 -513 0
-359 -514 0
-360 -515 0
-361 -526 0
-362 -527 0
-363 -528 0
-364 -529 0
-365 -530 0
-366 -526 0
-367 -527 0
-368 -528 0
-369 -529 0
-370 -530 0
-371 -516 0
-372 -517 0
-373 -518 0
-374 -519 0
-375 -520 0
-376 -521 0
-377 -522 0
-378 -523 0
-379 -524 0
-380 -525 0
-381 -521 0
-382 -522 0
-383 -523 0
-384 -524 0
-385 -525 0
-386 -516 0
-387 -517 0
-388 -518 0
-389 -519 0
-390 -520 0
-391 -471 0
-392 -472 0
-393 -473 0
-394 -474 0
-395 -475 0
-396 -476 0
-397 -477 0
-398 -478 0
-399 -479 0
-400 -480 0
-401 -481 0
-402 -482 0
-403 -483 0
-404 -484 0
-405 -485 0
-406 -486 0
-407 -487 0
-408 -488 0
-409 -489 0
-410 -490 0
-411 -491 0
-412 -492 0
-413 -493 0
-414 -494 0
-415 -495 0
-416 -506 0
-417 -507 0
-418 -508 0
-419 -509 0
-420 -510 0
-421 -501 0
-422 -502 0
-423 -503 0
-424 -504 0
-425 -505 0
-426 -496 0
-427 -497 0
-428 -498 0
-429 -499 0
-430 -500 0
-431 -471 0
-432 -472 0
-433 -473 0
-434 -474 0
-435 -475 0
-436 -476 0
-437 -477 0
-438 -478 0
-439 -479 0
-440 -480 0
-441 -481 0
-442 -482 0
-443 -483 0
-444 -484 0
-445 -485 0
-446 -486 0
-447 -487 0
-448 -488 0
-449 -489 0
-450 -490 0
-451 -491 0
-452 -492 0
-453 -493 0
-454 -494 0
-455 -495 0
-456 -506 0
-457 -507 0
-458 -508 0
-459 -509 0
-460 -510 0
-461 -501 0
-462 -502 0
-463 -503 0
-464 -504 0
-465 -505 0
-466 -496 0
-467 -497 0
-468 -498 0
-469 -499 0
-470 -500 0
-471 -531 0
-472 -532 0
-473 -533 0
-474 -534 0
-475 -535 0
-476 -531 0
-477 -532 0
-478 -533 0
-479 -534 0
-480 -535 0
-481 -536 0
-482 -537 0
-483 -538 0
-484 -539 0
-485 -540 0
-486 -536 0
-487 -537 0
-488 -538 0
-489 -539 0
-490 -540 0
-491 -541 0
-492 -542 0
-493 -543 0
-494 -544 0
-495 -545 0
-496 -546 0
-497 -547 0
-498 -548 0
-499 -549 0
-500 -550 0
-501 -546 0
-502 -547 0
-503 -548 0
-504 -549 0
-505 -550 0
-506 -541 0
-507 -542 0
-508 -543 0
-509 -544 0
-510 -545 0
-511 -551 0
-512 -552 0
-513 -553 0
-514 -554 0
-515 -555 0
-516 -556 0
-517 -557 0
-518 -558 0
-519 -559 0
-520 -560 0
-521 -556 0
-522 -557 0
-523 -558 0
-524 -559 0
-525 -560 0
-526 -551 0
-527 -552 0
-528 -553 0
-529 -554 0
-530 -555 0
